lkh/instances/viii_region_biobio.tsp
NAME: viii_region_biobio
TYPE: TSP
COMMENT: Simulated region viii_region_biobio
DIMENSION: 10
EDGE_WEIGHT_TYPE: EUC_2D
NODE_COORD_SECTION
1 25 55
2 45 70
3 65 65
4 85 55
5 70 40
6 50 25
7 30 20
8 15 35
9 35 45
10 55 50
EOF
