lkh/tours/viii_region_biobio.tour
viii_region_biobio, Cost: 120_341
The tours traveled by the 3 salesmen are:
1 5 3 2 1 (#3)  Cost: 118
1 4 10 1 (#2)  Cost: 120
1 8 7 6 9 1 (#4)  Cost: 103
